(set-logic UFSLIA)
(declare-fun sx () String)
(declare-fun sy () String)
(declare-fun a () String)
(assert (= (str.len a) 1))
(declare-fun nil () String)
(assert (= (str.len nil) 0))
(assert (= nil (str.++ sx (str.++ a sy) )))
(check-sat)
(exit)
